-57       28
 54       -65
 46       79
  8       111
-36       52
-22       -76
 34       129
 74       6
 -6       -41
 21       45
 37       155
-38       35
 -5       -24
 70       -74
 59       -26
114       -56
 83       -41
-40       -28
 21       -12
  0       71
 50       140
-20       70